\ Model Routes
\ LP format - for model browsing. Use MPS format to capture full model detail.
Maximize
  - 191.7153353028244 R{0,0} + 623.2046552982704 R{0,1}
   + 623.2046552982704 R{0,2} - 249.2301939667805 R{0,3}
   - 17.2186063228686 R{0,4} + 1085.481438609255 R{0,5}
   + 1085.481438609255 R{0,6} + 436.6511015152979 R{0,7}
   + 1153.282719762323 R{0,8} + 1452.293809839529 R{0,9}
   + 506.559822031307 R{0,10} + 438.444658217614 R{0,11}
   + 227.0117100192371 R{0,12} - 256.140831891889 R{1,0}
   + 240.8426004455556 R{1,1} + 602.4551993641217 R{1,2}
   + 1229.942876029293 R{1,3} + 430.6657726727743 R{1,4}
   + 1016.46227437961 R{1,5} + 1081.217501288357 R{1,6}
   + 185.3453527805545 R{1,7} + 578.0193002810879 R{1,8}
   + 1102.474666091061 R{1,9} + 1198.881248318718 R{2,0}
   + 1198.881248318718 R{2,1} - 278.4443928850388 R{2,2}
   - 59.13410337035452 R{2,3} + 602.7748664658451 R{2,4}
   + 1100.505917706273 R{2,5} + 774.166852893441 R{2,6}
   + 774.166852893441 R{2,7} + 947.5724883564153 R{2,8}
   + 1198.881248318718 R{2,9} + 117.3864940348481 R{2,10}
   + 358.8189713278232 R{2,11} + 1127.126554447374 R{2,12}
   + 458.825689350445 R{2,13} + 644.4168851140871 R{2,14}
   - 260.2482995389823 R{3,0} + 387.9258281754088 R{3,1}
   + 1095.971940651614 R{3,2} + 842.8775739282864 R{3,3}
   + 129.7321283351852 R{3,4} + 1076.917662311824 R{3,5}
   + 419.9834361126286 R{3,6} + 978.9006467457477 R{3,7}
   + 799.3439472035292 R{3,8} + 419.9834361126286 R{3,9}
   + 1179.218310753326 R{3,10} + 620.3011001202069 R{3,11}
   + 331.699106440441 R{3,12} + 873.5026406251529 R{3,13}
   + 926.123944029998 R{3,14} + 1006.038296881749 R{3,15}
   + 1105.16679111332 R{3,16} - 242.5208875955131 R{4,0}
   + 951.0120248010182 R{4,1} + 1466.921308879989 R{4,2}
   + 975.1941861865814 R{4,3} + 1929.825226460752 R{4,4}
   + 1068.944758836048 R{4,5} + 1151.18346195395 R{4,6}
   + 1491.103470265552 R{4,7} + 779.6739261154041 R{4,8}
   + 1677.569142676231 R{4,9} + 1838.864040119365 R{4,10}
   + 1220.258549113244 R{4,11} + 1840.934815973163 R{4,12}
   + 1322.954756040395 R{4,13} + 1686.10710958281 R{4,14}
   - 231.9775664337766 R{5,0} + 71.44445251691309 R{5,1}
   + 655.9086739061916 R{5,2} + 71.44445251691309 R{5,3}
   + 71.44445251691309 R{5,4} + 451.0156100358142 R{5,5}
   + 813.9897172874807 R{5,6} - 231.1436095783099 R{6,0}
   + 1370.402709432251 R{6,1} + 2203.660382897198 R{6,2}
   + 2548.258740052186 R{6,3} + 1627.1540770388 R{6,4}
   + 1618.22370960622 R{6,5} + 1009.35091462941 R{6,6}
   + 1994.637983724669 R{6,7} + 1171.132576796734 R{6,8}
   + 1445.358520589382 R{6,9} + 1537.074980323019 R{6,10}
   + 2339.468995322939 R{6,11} + 1560.238873354671 R{6,12}
   + 1672.093993655339 R{6,13} + 1827.525182786933 R{6,14}
Subject To
 R00: R{0,0} <= 1
 R01: R{0,1} <= 1
 R02: R{0,2} <= 1
 R03: R{0,3} <= 1
 R04: R{0,4} <= 1
 R05: R{0,5} <= 1
 R06: R{0,6} <= 1
 R07: R{0,7} <= 1
 R08: R{0,8} <= 1
 R09: R{0,9} <= 1
 R010: R{0,10} <= 1
 R011: R{0,11} <= 1
 R012: R{0,12} <= 1
 R013: R{1,0} <= 1
 R014: R{1,1} <= 1
 R015: R{1,2} <= 1
 R016: R{1,3} <= 1
 R017: R{1,4} <= 1
 R018: R{1,5} <= 1
 R019: R{1,6} <= 1
 R020: R{1,7} <= 1
 R021: R{1,8} <= 1
 R022: R{1,9} <= 1
 R023: R{2,0} <= 1
 R024: R{2,1} <= 1
 R025: R{2,2} <= 1
 R026: R{2,3} <= 1
 R027: R{2,4} <= 1
 R028: R{2,5} <= 1
 R029: R{2,6} <= 1
 R030: R{2,7} <= 1
 R031: R{2,8} <= 1
 R032: R{2,9} <= 1
 R033: R{2,10} <= 1
 R034: R{2,11} <= 1
 R035: R{2,12} <= 1
 R036: R{2,13} <= 1
 R037: R{2,14} <= 1
 R038: R{3,0} <= 1
 R039: R{3,1} <= 1
 R040: R{3,2} <= 1
 R041: R{3,3} <= 1
 R042: R{3,4} <= 1
 R043: R{3,5} <= 1
 R044: R{3,6} <= 1
 R045: R{3,7} <= 1
 R046: R{3,8} <= 1
 R047: R{3,9} <= 1
 R048: R{3,10} <= 1
 R049: R{3,11} <= 1
 R050: R{3,12} <= 1
 R051: R{3,13} <= 1
 R052: R{3,14} <= 1
 R053: R{3,15} <= 1
 R054: R{3,16} <= 1
 R055: R{4,0} <= 1
 R056: R{4,1} <= 1
 R057: R{4,2} <= 1
 R058: R{4,3} <= 1
 R059: R{4,4} <= 1
 R060: R{4,5} <= 1
 R061: R{4,6} <= 1
 R062: R{4,7} <= 1
 R063: R{4,8} <= 1
 R064: R{4,9} <= 1
 R065: R{4,10} <= 1
 R066: R{4,11} <= 1
 R067: R{4,12} <= 1
 R068: R{4,13} <= 1
 R069: R{4,14} <= 1
 R070: R{5,0} <= 1
 R071: R{5,1} <= 1
 R072: R{5,2} <= 1
 R073: R{5,3} <= 1
 R074: R{5,4} <= 1
 R075: R{5,5} <= 1
 R076: R{5,6} <= 1
 R077: R{6,0} <= 1
 R078: R{6,1} <= 1
 R079: R{6,2} <= 1
 R080: R{6,3} <= 1
 R081: R{6,4} <= 1
 R082: R{6,5} <= 1
 R083: R{6,6} <= 1
 R084: R{6,7} <= 1
 R085: R{6,8} <= 1
 R086: R{6,9} <= 1
 R087: R{6,10} <= 1
 R088: R{6,11} <= 1
 R089: R{6,12} <= 1
 R090: R{6,13} <= 1
 R091: R{6,14} <= 1
 R1_0: R{0,0} + R{0,1} + R{0,2} + R{0,3} + R{0,4} + R{0,5} + R{0,6}
   + R{0,7} + R{0,8} + R{0,9} + R{0,10} + R{0,11} + R{0,12} <= 1
 R1_1: R{1,0} + R{1,1} + R{1,2} + R{1,3} + R{1,4} + R{1,5} + R{1,6}
   + R{1,7} + R{1,8} + R{1,9} <= 1
 R1_2: R{2,0} + R{2,1} + R{2,2} + R{2,3} + R{2,4} + R{2,5} + R{2,6}
   + R{2,7} + R{2,8} + R{2,9} + R{2,10} + R{2,11} + R{2,12} + R{2,13}
   + R{2,14} <= 1
 R1_3: R{3,0} + R{3,1} + R{3,2} + R{3,3} + R{3,4} + R{3,5} + R{3,6}
   + R{3,7} + R{3,8} + R{3,9} + R{3,10} + R{3,11} + R{3,12} + R{3,13}
   + R{3,14} + R{3,15} + R{3,16} <= 1
 R1_4: R{4,0} + R{4,1} + R{4,2} + R{4,3} + R{4,4} + R{4,5} + R{4,6}
   + R{4,7} + R{4,8} + R{4,9} + R{4,10} + R{4,11} + R{4,12} + R{4,13}
   + R{4,14} <= 1
 R1_5: R{5,0} + R{5,1} + R{5,2} + R{5,3} + R{5,4} + R{5,5} + R{5,6} <= 1
 R1_6: R{6,0} + R{6,1} + R{6,2} + R{6,3} + R{6,4} + R{6,5} + R{6,6}
   + R{6,7} + R{6,8} + R{6,9} + R{6,10} + R{6,11} + R{6,12} + R{6,13}
   + R{6,14} <= 1
 R2_0: <= 0
 R2_1: 10 R{0,9} + 10 R{0,10} + 10 R{3,1} + 10 R{3,2} + 10 R{3,3}
   + 10 R{3,5} + 10 R{3,6} + 10 R{3,7} + 10 R{3,8} + 10 R{3,9} + 10 R{3,10}
   + 10 R{3,11} + 10 R{3,12} + 10 R{3,14} + 10 R{3,16} + 10 R{4,12}
   + 10 R{4,14} + 10 R{6,9} + 10 R{6,13} <= 10
 R2_2: <= 0
 R2_3: 4 R{1,1} + 4 R{1,2} + 4 R{1,3} + 4 R{1,4} + 4 R{1,5} + 4 R{1,9}
   <= 4
 R2_4: <= 0
 R2_5: 5 R{0,4} + 5 R{0,5} + 5 R{0,6} <= 5
 R2_6: 10 R{1,6} + 10 R{1,8} + 10 R{4,1} + 10 R{4,2} + 10 R{4,3}
   + 10 R{4,4} + 10 R{4,5} + 10 R{4,7} + 10 R{4,9} + 10 R{4,10}
   + 10 R{4,12} + 10 R{4,13} + 10 R{6,12} <= 10
 R2_7: 6 R{1,1} + 6 R{1,2} + 6 R{1,4} + 6 R{1,5} + 6 R{1,7} <= 6
 R2_8: <= 0
 R2_9: 12 R{4,1} + 12 R{4,2} + 12 R{4,3} + 12 R{4,4} + 12 R{4,5}
   + 12 R{4,6} + 12 R{4,7} + 12 R{4,8} + 12 R{4,9} + 12 R{4,10}
   + 12 R{4,11} + 12 R{4,13} <= 12
 R2_10: 8 R{6,1} + 8 R{6,2} + 8 R{6,4} + 8 R{6,5} + 8 R{6,6} + 8 R{6,7}
   + 8 R{6,8} + 8 R{6,9} + 8 R{6,10} + 8 R{6,11} + 8 R{6,12} + 8 R{6,13}
   <= 8
 R2_11: <= 0
 R2_12: <= 0
 R2_13: <= 0
 R2_14: <= 0
 R2_15: 11 R{0,0} + 11 R{0,1} + 11 R{0,2} + 11 R{4,1} + 11 R{4,2} <= 11
 R2_16: <= 0
 R2_17: <= 0
 R2_18: <= 0
 R2_19: 11 R{0,7} + 11 R{3,5} + 11 R{4,6} + 11 R{5,5} <= 11
 R2_20: 13 R{2,5} + 13 R{2,12} + 13 R{6,1} + 13 R{6,2} + 13 R{6,3}
   + 13 R{6,4} + 13 R{6,5} + 13 R{6,6} + 13 R{6,7} + 13 R{6,8} + 13 R{6,10}
   + 13 R{6,11} + 13 R{6,14} <= 13
 R2_21: <= 0
 R2_22: <= 0
 R2_23: 14 R{0,1} + 14 R{0,2} + 14 R{0,11} + 14 R{0,12} + 14 R{2,0}
   + 14 R{2,1} + 14 R{2,6} + 14 R{2,7} + 14 R{2,8} + 14 R{2,9} + 14 R{2,14}
   + 14 R{4,4} + 14 R{6,2} + 14 R{6,3} + 14 R{6,5} + 14 R{6,7} + 14 R{6,11}
   + 14 R{6,14} <= 14
 R2_24: 10 R{3,1} + 10 R{3,2} + 10 R{3,4} + 10 R{3,6} + 10 R{3,7}
   + 10 R{3,8} + 10 R{3,9} + 10 R{3,10} + 10 R{3,11} + 10 R{3,13}
   + 10 R{3,15} + 10 R{4,9} + 10 R{4,12} <= 10
 R2_25: 13 R{4,1} + 13 R{4,2} + 13 R{4,3} + 13 R{4,4} + 13 R{4,5}
   + 13 R{4,7} + 13 R{4,9} + 13 R{4,10} + 13 R{4,11} + 13 R{4,12}
   + 13 R{4,13} + 13 R{4,14} <= 13
 R2_26: 6 R{1,1} + 6 R{1,2} + 6 R{1,3} + 6 R{1,5} + 6 R{1,6} + 6 R{1,8}
   + 6 R{1,9} + 6 R{5,6} <= 6
 R2_27: 5 R{0,5} + 5 R{0,6} + 5 R{0,8} + 5 R{0,9} + 5 R{1,5} + 5 R{4,14}
   + 5 R{6,1} + 5 R{6,2} + 5 R{6,3} + 5 R{6,4} + 5 R{6,7} + 5 R{6,9}
   + 5 R{6,11} + 5 R{6,12} + 5 R{6,13} <= 5
 R2_28: <= 0
 R2_29: <= 0
 R2_30: <= 0
 R2_31: <= 0
 R2_32: 7 R{5,1} + 7 R{5,2} + 7 R{5,3} + 7 R{5,4} + 7 R{5,5} + 7 R{5,6}
   <= 7
 R2_33: 12 R{3,10} + 12 R{3,11} + 12 R{3,13} + 12 R{3,14} + 12 R{3,15}
   <= 12
 R2_34: <= 0
 R2_35: <= 0
 R2_36: <= 0
 R2_37: 5 R{3,1} + 5 R{3,2} + 5 R{3,3} + 5 R{3,4} + 5 R{3,6} + 5 R{3,8}
   + 5 R{3,9} + 5 R{3,11} + 5 R{3,12} + 5 R{3,15} <= 5
 R2_38: <= 0
 R2_39: <= 0
 R2_40: 15 R{2,3} + 15 R{2,4} + 15 R{2,5} + 15 R{2,12} <= 15
 R2_41: 5 R{1,2} + 5 R{1,3} + 5 R{1,4} + 5 R{1,5} + 5 R{1,6} + 5 R{1,9}
   + 5 R{3,8} + 5 R{3,16} + 5 R{4,5} + 5 R{4,6} + 5 R{4,8} + 5 R{4,9}
   + 5 R{6,4} <= 5
 R2_42: 4 R{2,3} + 4 R{2,4} + 4 R{2,5} + 4 R{2,12} <= 4
 R2_43: <= 0
 R2_44: <= 0
 R2_45: <= 0
 R2_46: 9 R{2,13} + 9 R{4,9} + 9 R{4,10} + 9 R{4,12} + 9 R{4,13}
   + 9 R{4,14} <= 9
 R2_47: 7 R{5,1} + 7 R{5,2} + 7 R{5,3} + 7 R{5,4} + 7 R{5,5} <= 7
 R2_48: 4 R{4,1} + 4 R{4,2} + 4 R{4,3} + 4 R{4,4} + 4 R{4,7} + 4 R{4,10}
   + 4 R{4,11} + 4 R{4,12} + 4 R{4,13} + 4 R{4,14} <= 4
 R2_49: <= 0
 R2_50: <= 0
 R2_51: 11 R{4,1} + 11 R{4,3} + 11 R{4,5} + 11 R{4,6} + 11 R{4,8}
   + 11 R{4,13} <= 11
 R2_52: 10 R{4,6} + 10 R{4,8} + 10 R{4,9} <= 10
 R2_53: 13 R{4,1} + 13 R{4,2} + 13 R{4,3} + 13 R{4,4} + 13 R{4,7}
   + 13 R{4,10} + 13 R{4,11} + 13 R{4,13} <= 13
 R2_54: <= 9
 R2_55: 8 R{6,1} + 8 R{6,2} + 8 R{6,3} + 8 R{6,5} + 8 R{6,6} + 8 R{6,7}
   + 8 R{6,8} + 8 R{6,9} + 8 R{6,10} + 8 R{6,11} + 8 R{6,12} + 8 R{6,13}
   + 8 R{6,14} <= 8
 R2_56: 6 R{2,0} + 6 R{2,1} + 6 R{2,8} + 6 R{2,9} + 6 R{6,2} + 6 R{6,3}
   + 6 R{6,5} + 6 R{6,9} + 6 R{6,11} + 6 R{6,12} + 6 R{6,13} + 6 R{6,14}
   <= 6
 R2_57: <= 0
 R2_58: <= 0
 R2_59: 10 R{4,12} + 10 R{4,14} + 10 R{6,6} + 10 R{6,8} <= 10
 R2_60: <= 0
 R2_61: 9 R{0,11} + 9 R{2,11} + 9 R{2,14} + 9 R{4,12} + 9 R{4,14}
   + 9 R{6,14} <= 9
 R2_62: <= 0
 R2_63: <= 0
 R2_64: <= 0
 R2_65: 5 R{2,0} + 5 R{2,1} + 5 R{2,6} + 5 R{2,7} + 5 R{2,9} + 5 R{2,14}
   + 5 R{6,1} + 5 R{6,2} + 5 R{6,3} + 5 R{6,4} + 5 R{6,7} + 5 R{6,10}
   + 5 R{6,13} <= 5
 R2_66: 7 R{1,6} + 7 R{4,9} + 7 R{6,1} + 7 R{6,2} + 7 R{6,3} + 7 R{6,4}
   + 7 R{6,5} + 7 R{6,6} + 7 R{6,7} + 7 R{6,9} + 7 R{6,11} + 7 R{6,12}
   + 7 R{6,13} + 7 R{6,14} <= 7
 R2_67: 3 R{0,1} + 3 R{0,2} + 3 R{2,0} + 3 R{2,1} + 3 R{2,6} + 3 R{2,7}
   + 3 R{2,8} + 3 R{2,9} + 3 R{2,10} + 3 R{2,11} + 3 R{2,13} + 3 R{6,3}
   <= 3
 R2_68: 6 R{0,10} + 6 R{1,1} + 6 R{1,2} + 6 R{1,3} + 6 R{1,4} + 6 R{1,5}
   + 6 R{1,6} + 6 R{1,7} + 6 R{1,8} <= 6
 R2_69: 7 R{1,7} + 7 R{1,8} + 7 R{3,12} + 7 R{4,1} + 7 R{4,2} + 7 R{4,3}
   + 7 R{4,4} + 7 R{4,5} + 7 R{4,6} + 7 R{4,7} + 7 R{4,8} + 7 R{4,10}
   + 7 R{4,11} + 7 R{4,13} <= 7
 R2_70: 11 R{1,1} + 11 R{1,2} + 11 R{1,3} <= 11
 R2_71: 7 R{1,6} + 7 R{6,1} + 7 R{6,2} + 7 R{6,3} + 7 R{6,4} + 7 R{6,5}
   + 7 R{6,6} + 7 R{6,8} + 7 R{6,9} + 7 R{6,10} + 7 R{6,11} + 7 R{6,13}
   + 7 R{6,14} <= 7
 R2_72: <= 0
 R2_73: <= 0
 R2_74: 5 R{5,1} + 5 R{5,3} + 5 R{5,4} + 5 R{5,5} <= 5
 R2_75: 8 R{6,1} + 8 R{6,2} + 8 R{6,3} + 8 R{6,4} + 8 R{6,5} + 8 R{6,7}
   + 8 R{6,9} + 8 R{6,10} + 8 R{6,11} + 8 R{6,12} + 8 R{6,13} + 8 R{6,14}
   <= 8
 R2_76: 12 R{0,4} + 12 R{0,5} + 12 R{0,6} + 12 R{0,7} + 12 R{0,8}
   + 12 R{0,9} + 12 R{0,10} + 12 R{6,7} + 12 R{6,8} + 12 R{6,11}
   + 12 R{6,12} <= 12
 R2_77: 7 R{0,5} + 7 R{0,6} + 7 R{0,8} + 7 R{0,9} + 7 R{1,3} + 7 R{1,9}
   + 7 R{2,4} + 7 R{2,5} + 7 R{2,12} + 7 R{3,2} + 7 R{3,3} + 7 R{3,5}
   + 7 R{3,7} + 7 R{3,10} + 7 R{3,13} + 7 R{3,14} + 7 R{3,15} + 7 R{3,16}
   + 7 R{4,2} + 7 R{4,4} + 7 R{4,7} + 7 R{4,10} + 7 R{4,11} + 7 R{5,2}
   + 7 R{5,6} + 7 R{6,10} <= 7
Bounds
End
